set VV := 0 1 2 3 4 5 6 7 8 9 10 11 12 13 14 15 16 17 18 19 20 21 22 23 24 25 26 27 28 29 30 31 32 33 34 35 36 37 38 39 40 ;
set VS := 0 1 2 3 4 5 6 7 8 9 10 11 12 13 14 15 16 17 18 19 20 21 22 23 24 25 26 27 28 29 30 31 32 33 34 35 36 37 38 39 40 41 42 43 44 45 46 47 48 49 50 51 52 53 54 55 56 57 58 59 60 61 62 63 64 65 66 67 68 69 70 71 72 73 74 75 76 77 78 79 80 81 82 83 84 85 ;
param cv := 
0 21
1 20
2 15
3 16
4 19
5 19
6 14
7 23
8 14
9 16
10 20
11 13
12 20
13 25
14 14
15 23
16 25
17 22
18 23
19 25
20 12
21 14
22 23
23 15
24 12
25 12
26 21
27 16
28 22
29 13
30 19
31 22
32 18
33 15
34 23
35 22
36 11
37 22
38 11
39 19
40 21
;
param cs := 
0 27
1 28
2 24
3 28
4 30
5 34
6 38
7 40
8 26
9 20
10 23
11 24
12 39
13 38
14 37
15 33
16 37
17 32
18 37
19 22
20 31
21 34
22 30
23 39
24 34
25 25
26 26
27 23
28 21
29 30
30 25
31 39
32 29
33 36
34 35
35 38
36 39
37 32
38 20
39 32
40 20
41 37
42 32
43 32
44 39
45 29
46 24
47 37
48 29
49 21
50 33
51 33
52 30
53 20
54 23
55 28
56 33
57 34
58 40
59 31
60 37
61 27
62 24
63 31
64 39
65 23
66 32
67 21
68 35
69 32
70 31
71 38
72 38
73 21
74 26
75 25
76 22
77 40
78 33
79 29
80 20
81 38
82 40
83 31
84 24
85 35
;
param bv:	 0 1 2 3 4 5 6 7 8 9 10 11 12 13 14 15 16 17 18 19 20 21 22 23 24 25 26 27 28 29 30 31 32 33 34 35 36 37 38 39 40 := 
		0 0 12 0 0 0 0 19 0 0 0 0 17 0 0 0 0 0 0 0 0 0 0 0 0 0 0 0 0 0 0 0 0 0 0 0 24 0 0 0 0 0 
		1 0 0 0 23 0 0 13 0 0 25 0 0 0 0 0 0 0 17 0 0 0 0 0 10 0 0 0 0 0 0 0 0 0 0 0 10 0 0 0 0 0 
		2 0 0 0 0 23 16 0 0 0 0 0 0 0 0 0 0 0 0 0 0 0 0 0 0 0 0 0 0 0 0 0 0 0 0 0 0 0 0 0 0 0 
		3 0 0 0 0 0 0 0 0 0 0 0 0 0 0 0 0 0 0 0 0 0 0 25 12 18 0 0 0 0 0 0 0 0 0 0 0 0 0 0 0 0 
		4 0 0 0 0 0 0 0 0 21 0 0 0 0 22 0 0 21 0 0 12 0 0 0 19 0 0 0 0 0 0 0 0 0 20 0 0 0 25 0 0 0 
		5 0 0 0 0 0 0 0 0 0 0 0 0 0 0 0 0 0 0 0 16 0 0 0 0 0 0 0 0 23 0 16 0 0 0 11 17 0 0 0 0 0 
		6 0 0 0 0 0 0 0 0 0 0 0 0 0 0 0 0 0 0 0 0 0 0 0 0 0 0 0 0 0 0 15 10 0 0 0 0 0 0 0 0 0 
		7 0 0 0 0 0 0 0 0 0 0 0 0 0 0 0 0 0 0 0 0 0 13 0 0 0 0 0 0 0 0 0 0 0 0 0 0 0 0 0 0 0 
		8 0 0 0 0 0 0 0 0 0 0 0 0 0 0 0 0 0 0 0 0 0 0 24 0 0 0 0 0 0 0 0 0 0 0 0 0 0 18 0 0 0 
		9 0 0 0 0 0 0 0 0 0 0 23 0 0 0 0 0 0 0 0 0 0 0 0 0 19 0 0 0 0 0 0 0 0 0 0 0 0 0 0 0 0 
		10 0 0 0 0 0 0 0 0 0 0 0 0 16 0 0 0 0 0 0 0 0 0 0 0 0 0 0 0 0 0 0 0 0 0 0 0 0 0 0 17 0 
		11 0 0 0 0 0 0 0 0 0 0 0 0 0 0 11 0 0 11 0 0 14 0 0 17 0 0 0 0 0 0 0 0 0 18 0 0 0 0 0 21 0 
		12 0 0 0 0 0 0 0 0 0 0 0 0 0 0 0 0 22 0 0 0 0 16 19 0 0 0 0 0 0 0 0 0 0 0 0 0 0 0 0 0 14 
		13 0 0 0 0 0 0 0 0 0 0 0 0 0 0 0 22 0 0 0 0 0 0 0 0 11 0 0 0 0 0 0 0 0 0 24 0 0 0 0 0 0 
		14 0 0 0 0 0 0 0 0 0 0 0 0 0 0 0 13 0 0 0 0 25 0 0 0 0 12 0 0 0 0 0 0 0 0 0 0 0 0 0 0 0 
		15 0 0 0 0 0 0 0 0 0 0 0 0 0 0 0 0 0 0 0 18 0 0 0 0 0 0 0 0 0 0 0 0 0 0 0 22 0 0 0 0 0 
		16 0 0 0 0 0 0 0 0 0 0 0 0 0 0 0 0 0 0 0 0 0 10 0 0 13 0 0 0 16 0 11 0 0 0 0 0 0 0 0 0 0 
		17 0 0 0 0 0 0 0 0 0 0 0 0 0 0 0 0 0 0 0 0 0 0 0 10 0 0 24 0 0 0 0 0 0 11 0 0 0 0 0 0 0 
		18 0 0 0 0 0 0 0 0 0 0 0 0 0 0 0 0 0 0 0 14 0 0 0 0 0 0 0 0 0 0 0 0 0 0 0 0 19 0 0 0 0 
		19 0 0 0 0 0 0 0 0 0 0 0 0 0 0 0 0 0 0 0 0 0 0 0 0 0 0 0 21 0 0 0 0 0 0 0 0 13 0 0 0 0 
		20 0 0 0 0 0 0 0 0 0 0 0 0 0 0 0 0 0 0 0 0 0 0 0 0 18 0 0 0 0 0 0 0 0 0 0 0 17 15 0 0 0 
		21 0 0 0 0 0 0 0 0 0 0 0 0 0 0 0 0 0 0 0 0 0 0 0 0 0 0 0 0 0 0 0 0 0 0 0 0 0 0 0 0 18 
		22 0 0 0 0 0 0 0 0 0 0 0 0 0 0 0 0 0 0 0 0 0 0 0 0 0 0 0 0 0 0 25 0 0 0 0 0 0 0 0 0 0 
		23 0 0 0 0 0 0 0 0 0 0 0 0 0 0 0 0 0 0 0 0 0 0 0 0 0 0 0 0 0 0 0 0 0 24 0 0 0 0 0 0 0 
		24 0 0 0 0 0 0 0 0 0 0 0 0 0 0 0 0 0 0 0 0 0 0 0 0 0 0 0 0 0 0 0 0 0 0 0 0 0 0 11 0 0 
		25 0 0 0 0 0 0 0 0 0 0 0 0 0 0 0 0 0 0 0 0 0 0 0 0 0 0 21 0 0 0 13 15 0 0 0 0 25 0 0 0 0 
		26 0 0 0 0 0 0 0 0 0 0 0 0 0 0 0 0 0 0 0 0 0 0 0 0 0 0 0 0 0 0 0 23 0 24 0 0 0 0 0 0 0 
		27 0 0 0 0 0 0 0 0 0 0 0 0 0 0 0 0 0 0 0 0 0 0 0 0 0 0 0 0 0 23 0 0 0 0 0 0 0 0 0 0 0 
		28 0 0 0 0 0 0 0 0 0 0 0 0 0 0 0 0 0 0 0 0 0 0 0 0 0 0 0 0 0 0 0 0 0 0 0 0 0 17 0 0 0 
		29 0 0 0 0 0 0 0 0 0 0 0 0 0 0 0 0 0 0 0 0 0 0 0 0 0 0 0 0 0 0 0 0 0 0 0 0 0 0 11 0 0 
		30 0 0 0 0 0 0 0 0 0 0 0 0 0 0 0 0 0 0 0 0 0 0 0 0 0 0 0 0 0 0 0 0 25 0 0 0 0 13 0 0 0 
		31 0 0 0 0 0 0 0 0 0 0 0 0 0 0 0 0 0 0 0 0 0 0 0 0 0 0 0 0 0 0 0 0 21 0 0 0 0 0 0 0 0 
		32 0 0 0 0 0 0 0 0 0 0 0 0 0 0 0 0 0 0 0 0 0 0 0 0 0 0 0 0 0 0 0 0 0 17 0 0 0 0 0 0 0 
		33 0 0 0 0 0 0 0 0 0 0 0 0 0 0 0 0 0 0 0 0 0 0 0 0 0 0 0 0 0 0 0 0 0 0 0 0 0 0 0 0 0 
		34 0 0 0 0 0 0 0 0 0 0 0 0 0 0 0 0 0 0 0 0 0 0 0 0 0 0 0 0 0 0 0 0 0 0 0 0 0 0 0 0 0 
		35 0 0 0 0 0 0 0 0 0 0 0 0 0 0 0 0 0 0 0 0 0 0 0 0 0 0 0 0 0 0 0 0 0 0 0 0 0 24 0 0 0 
		36 0 0 0 0 0 0 0 0 0 0 0 0 0 0 0 0 0 0 0 0 0 0 0 0 0 0 0 0 0 0 0 0 0 0 0 0 0 17 10 0 0 
		37 0 0 0 0 0 0 0 0 0 0 0 0 0 0 0 0 0 0 0 0 0 0 0 0 0 0 0 0 0 0 0 0 0 0 0 0 0 0 0 14 0 
		38 0 0 0 0 0 0 0 0 0 0 0 0 0 0 0 0 0 0 0 0 0 0 0 0 0 0 0 0 0 0 0 0 0 0 0 0 0 0 0 0 0 
		39 0 0 0 0 0 0 0 0 0 0 0 0 0 0 0 0 0 0 0 0 0 0 0 0 0 0 0 0 0 0 0 0 0 0 0 0 0 0 0 0 0 
		40 0 0 0 0 0 0 0 0 0 0 0 0 0 0 0 0 0 0 0 0 0 0 0 0 0 0 0 0 0 0 0 0 0 0 0 0 0 0 0 0 0 
;
param bs:	 0 1 2 3 4 5 6 7 8 9 10 11 12 13 14 15 16 17 18 19 20 21 22 23 24 25 26 27 28 29 30 31 32 33 34 35 36 37 38 39 40 41 42 43 44 45 46 47 48 49 50 51 52 53 54 55 56 57 58 59 60 61 62 63 64 65 66 67 68 69 70 71 72 73 74 75 76 77 78 79 80 81 82 83 84 85 := 
		0 0 0 0 0 0 36 0 0 0 0 0 38 26 0 0 34 0 0 0 0 38 0 0 37 24 0 0 24 0 0 0 0 0 33 0 0 0 0 0 0 34 37 22 0 0 27 0 0 0 0 38 0 39 34 0 0 0 0 0 0 0 0 0 0 0 0 0 24 0 22 0 0 0 0 39 33 0 27 0 34 0 0 0 0 0 0 
		1 0 0 30 0 0 37 0 0 0 0 0 0 0 0 0 23 0 0 0 0 0 0 0 0 0 0 0 0 0 0 0 0 35 0 0 0 0 0 0 0 0 32 0 31 0 0 0 0 21 0 0 0 0 0 0 0 0 0 0 29 0 0 36 0 0 0 0 0 0 0 35 0 25 29 0 0 0 0 0 0 0 0 0 0 0 25 
		2 0 30 0 0 0 33 0 0 0 0 0 0 0 21 29 0 0 0 0 0 0 0 0 35 0 33 21 0 0 0 0 0 39 0 0 0 0 0 0 0 0 0 0 0 0 0 0 0 0 0 0 0 40 0 0 0 0 0 0 0 0 0 28 0 0 0 24 38 0 0 0 0 0 0 20 0 0 0 0 0 0 0 0 30 0 0 
		3 0 0 0 0 0 0 0 0 0 0 0 36 0 0 0 0 0 0 0 0 0 0 0 0 23 0 0 23 0 0 0 0 0 0 0 0 0 0 0 0 0 0 0 0 0 0 0 20 0 0 0 0 0 0 0 0 0 0 0 0 0 0 0 0 36 0 0 0 0 0 30 0 0 28 0 30 0 0 0 0 0 0 0 0 0 0 
		4 0 0 0 0 0 25 0 0 0 0 0 0 0 0 0 0 0 0 0 0 33 0 25 0 0 0 0 0 0 0 0 0 0 0 0 0 0 0 32 0 38 0 0 0 0 0 0 0 0 33 0 0 0 0 0 0 0 22 22 0 0 0 0 0 25 0 0 0 0 0 0 0 0 0 0 0 0 0 0 24 0 0 0 0 0 0 
		5 36 37 33 0 25 0 0 0 0 0 0 0 0 0 0 0 0 0 0 0 0 0 0 0 0 0 0 21 0 0 0 0 0 23 0 0 24 0 0 0 0 0 31 0 0 0 0 0 0 0 0 0 26 0 0 0 0 0 0 0 0 0 0 0 0 0 0 0 0 0 0 0 0 0 0 0 0 0 0 0 0 0 24 0 0 0 
		6 0 0 0 0 0 0 0 0 34 0 0 0 37 0 0 0 0 0 0 0 0 0 0 0 0 0 0 31 0 0 0 0 0 0 0 0 0 38 0 0 0 40 0 0 0 0 0 0 0 0 0 0 0 0 0 0 0 23 0 0 0 39 35 0 0 0 0 0 21 0 0 0 0 0 27 0 0 0 0 0 0 0 31 0 0 28 
		7 0 0 0 0 0 0 0 0 36 0 0 0 0 0 0 0 0 0 0 0 24 0 0 0 0 0 0 0 0 33 31 0 0 0 0 0 0 0 0 0 0 21 25 0 31 0 0 25 0 0 0 0 0 0 0 0 0 0 0 0 0 0 36 0 0 0 0 0 0 0 0 0 0 0 0 0 30 0 0 0 0 0 0 0 0 0 
		8 0 0 0 0 0 0 34 36 0 0 0 0 0 0 0 0 0 0 0 0 29 0 0 0 0 0 0 0 0 0 0 0 0 0 40 0 0 0 0 0 0 0 0 0 0 0 0 0 0 0 0 0 0 0 0 0 0 0 0 0 30 0 0 0 0 0 0 33 0 0 0 0 0 0 0 0 0 0 30 0 0 0 0 0 0 0 
		9 0 0 0 0 0 0 0 0 0 0 0 0 33 0 40 0 0 0 0 0 0 39 0 0 0 0 0 0 0 0 0 0 0 0 0 0 0 0 0 0 0 0 0 0 0 0 0 20 0 0 0 0 0 0 0 0 0 0 0 0 0 0 20 0 0 32 0 0 0 28 0 0 0 0 30 0 0 0 0 0 0 0 0 0 0 0 
		10 0 0 0 0 0 0 0 0 0 0 0 0 0 0 0 0 0 0 39 0 29 0 0 0 0 0 0 0 0 0 0 0 0 0 0 0 0 20 0 0 0 0 31 38 0 0 0 0 0 0 0 37 0 0 0 0 0 0 0 0 0 0 0 0 0 0 0 0 0 0 0 0 0 0 0 0 0 0 0 0 0 27 0 0 0 0 
		11 38 0 0 36 0 0 0 0 0 0 0 0 24 0 0 0 0 0 0 0 0 0 0 0 0 0 0 0 0 0 0 0 0 0 0 0 0 0 0 0 0 0 0 0 0 32 30 0 0 27 0 0 0 22 0 0 0 0 0 38 0 0 0 0 0 0 0 0 21 0 0 0 39 0 0 0 0 0 0 0 35 0 0 34 0 0 
		12 26 0 0 0 0 0 37 0 0 33 0 24 0 0 0 0 0 0 0 0 0 0 0 26 22 0 38 0 0 0 27 0 0 0 0 0 0 0 0 0 0 21 0 0 0 0 38 0 0 0 0 0 0 0 0 0 32 0 0 0 0 40 0 0 0 0 0 0 0 0 34 0 0 0 0 0 0 0 0 22 0 0 0 0 0 0 
		13 0 0 21 0 0 0 0 0 0 0 0 0 0 0 0 0 0 0 0 0 0 0 0 0 30 0 0 0 0 0 0 0 0 0 36 0 34 0 0 0 0 0 0 0 0 0 0 0 0 0 0 0 0 0 0 0 26 0 0 36 0 0 0 0 0 0 0 0 27 0 0 0 0 0 0 0 0 0 0 0 0 0 0 0 0 0 
		14 0 0 29 0 0 0 0 0 0 40 0 0 0 0 0 0 0 37 0 0 0 0 0 0 21 0 0 0 0 0 0 0 0 0 0 31 0 0 0 0 0 0 0 0 0 0 0 0 0 0 0 0 0 0 0 0 0 0 0 37 0 20 0 0 0 0 0 0 0 0 29 0 32 0 32 29 0 0 0 0 0 0 0 0 0 0 
		15 34 23 0 0 0 0 0 0 0 0 0 0 0 0 0 0 0 0 0 0 0 23 0 0 0 0 0 0 0 0 0 0 30 0 0 0 0 40 0 0 0 0 0 0 0 0 0 0 0 0 0 0 0 0 0 0 0 0 0 0 0 0 0 0 0 0 0 0 0 38 0 0 0 0 0 0 0 0 32 0 0 0 21 0 0 0 
		16 0 0 0 0 0 0 0 0 0 0 0 0 0 0 0 0 0 0 0 0 0 0 36 0 0 36 0 0 0 0 0 0 0 0 0 0 0 0 0 0 0 0 0 0 0 0 0 0 0 0 0 0 0 0 0 0 0 0 0 0 0 0 0 0 0 0 0 0 0 0 0 0 26 0 0 33 0 22 0 0 0 0 0 0 0 27 
		17 0 0 0 0 0 0 0 0 0 0 0 0 0 0 37 0 0 0 0 0 0 0 0 0 0 0 0 0 0 0 0 0 0 35 0 0 0 0 0 0 0 0 0 0 0 0 0 0 0 0 0 0 0 0 0 0 0 0 0 0 0 0 0 0 0 0 0 0 0 0 0 0 0 25 0 0 0 0 0 0 0 0 0 0 0 0 
		18 0 0 0 0 0 0 0 0 0 0 39 0 0 0 0 0 0 0 0 27 0 0 0 35 0 0 0 0 0 0 0 0 35 0 0 0 0 37 0 0 0 0 0 0 0 0 0 36 0 0 0 0 0 0 0 0 0 0 0 0 0 0 0 0 0 35 0 0 0 0 23 0 0 0 0 0 0 0 0 0 0 0 0 0 0 0 
		19 0 0 0 0 0 0 0 0 0 0 0 0 0 0 0 0 0 0 27 0 0 0 0 0 0 0 34 0 0 0 0 35 0 0 20 0 0 0 0 0 0 0 0 26 0 0 0 0 0 28 0 40 0 0 0 39 0 0 0 0 0 0 28 0 0 0 0 0 0 0 0 0 0 0 0 0 0 0 0 0 30 0 0 34 0 0 
		20 38 0 0 0 33 0 0 24 29 0 29 0 0 0 0 0 0 0 0 0 0 0 0 0 0 0 22 0 0 0 0 0 0 0 0 0 0 0 0 0 0 0 0 35 33 0 0 0 0 36 0 0 0 0 0 0 0 0 0 0 0 0 0 0 0 0 0 0 0 0 0 0 0 0 0 0 0 0 0 0 0 0 0 0 0 0 
		21 0 0 0 0 0 0 0 0 0 39 0 0 0 0 0 23 0 0 0 0 0 0 0 0 0 0 34 0 0 0 0 0 0 0 0 0 0 33 0 0 36 0 0 0 0 0 0 0 0 0 0 23 0 0 0 0 0 24 0 0 0 0 0 0 0 31 0 28 0 0 0 0 0 0 0 0 0 0 0 0 23 0 0 0 32 0 
		22 0 0 0 0 25 0 0 0 0 0 0 0 0 0 0 0 36 0 0 0 0 0 0 0 0 0 0 0 0 0 0 0 0 0 0 0 0 0 0 0 0 0 0 0 0 0 0 0 0 0 0 0 0 0 0 0 0 0 0 0 0 0 0 0 0 0 0 0 22 0 0 0 40 0 0 0 21 0 0 0 0 0 0 0 0 0 
		23 37 0 35 0 0 0 0 0 0 0 0 0 26 0 0 0 0 0 35 0 0 0 0 0 0 0 0 0 0 0 0 0 0 0 0 0 0 0 0 0 0 0 39 0 0 0 0 0 0 0 0 0 0 0 0 0 0 32 0 0 0 0 0 0 0 0 0 0 0 0 0 0 0 36 0 0 0 0 0 0 0 0 0 28 0 0 
		24 24 0 0 23 0 0 0 0 0 0 0 0 22 30 21 0 0 0 0 0 0 0 0 0 0 0 28 0 0 0 0 0 0 37 0 0 0 0 0 0 0 0 40 40 0 0 31 0 0 0 0 0 0 0 0 0 39 0 0 0 27 0 0 0 0 0 0 0 39 0 0 0 0 0 0 0 0 0 0 0 0 0 28 0 33 0 
		25 0 0 33 0 0 0 0 0 0 0 0 0 0 0 0 0 36 0 0 0 0 0 0 0 0 0 0 0 0 0 0 0 0 0 0 0 0 0 0 0 0 0 0 0 0 0 0 0 0 26 0 0 0 0 0 0 0 0 0 0 0 0 0 0 0 0 0 0 0 0 0 0 0 0 0 0 0 0 0 0 0 0 0 29 0 0 
		26 0 0 21 0 0 0 0 0 0 0 0 0 38 0 0 0 0 0 0 34 22 34 0 0 28 0 0 0 0 0 0 0 0 0 28 0 0 0 38 0 0 0 0 0 0 0 0 0 0 0 0 0 0 0 0 0 0 0 0 0 39 0 0 0 0 0 0 0 0 0 0 0 0 20 0 0 0 0 0 0 28 0 0 0 0 0 
		27 24 0 0 23 0 21 31 0 0 0 0 0 0 0 0 0 0 0 0 0 0 0 0 0 0 0 0 0 0 0 0 0 0 30 0 0 0 0 0 35 0 0 0 0 0 40 0 0 0 0 34 0 0 0 0 0 0 0 0 0 0 20 0 0 38 0 0 0 0 0 0 0 0 0 31 0 0 0 0 0 0 0 0 0 0 0 
		28 0 0 0 0 0 0 0 0 0 0 0 0 0 0 0 0 0 0 0 0 0 0 0 0 0 0 0 0 0 0 0 0 0 0 0 0 0 0 0 0 0 0 0 0 0 0 0 0 0 0 0 0 0 0 0 0 0 0 33 0 0 0 30 0 0 0 0 0 0 0 0 0 0 35 0 0 0 0 0 0 0 0 0 0 0 0 
		29 0 0 0 0 0 0 0 33 0 0 0 0 0 0 0 0 0 0 0 0 0 0 0 0 0 0 0 0 0 0 0 0 0 0 0 0 0 0 0 36 0 0 0 0 0 0 0 0 0 20 0 0 0 0 0 0 0 0 0 0 0 0 0 0 0 0 0 0 0 0 0 0 0 0 24 0 0 0 0 0 0 28 0 0 0 0 
		30 0 0 0 0 0 0 0 31 0 0 0 0 27 0 0 0 0 0 0 0 0 0 0 0 0 0 0 0 0 0 0 21 31 0 0 0 0 0 0 0 0 0 37 0 0 0 0 0 0 0 0 30 0 0 0 0 0 0 0 0 0 0 0 0 0 0 0 0 0 0 0 0 0 0 0 0 0 0 0 0 0 0 0 0 0 0 
		31 0 0 0 0 0 0 0 0 0 0 0 0 0 0 0 0 0 0 0 35 0 0 0 0 0 0 0 0 0 0 21 0 0 0 0 0 0 0 0 0 0 0 27 0 0 0 0 0 0 0 0 0 0 0 0 0 0 28 0 0 0 0 30 0 0 0 0 0 0 0 0 0 0 0 0 0 0 0 0 0 0 0 0 0 0 0 
		32 0 35 39 0 0 0 0 0 0 0 0 0 0 0 0 30 0 0 35 0 0 0 0 0 0 0 0 0 0 0 31 0 0 0 0 33 0 0 0 0 0 0 0 39 25 0 0 30 0 0 0 37 0 0 0 0 0 0 0 0 0 0 0 0 0 0 0 0 0 0 0 0 21 0 21 0 0 0 0 0 35 0 0 0 0 0 
		33 33 0 0 0 0 23 0 0 0 0 0 0 0 0 0 0 0 35 0 0 0 0 0 0 37 0 0 30 0 0 0 0 0 0 0 0 0 0 0 0 39 0 0 0 35 0 0 0 0 0 0 0 0 0 0 0 0 30 0 0 0 0 0 0 0 0 0 0 0 0 0 0 0 0 0 0 0 40 0 31 0 27 0 0 0 36 
		34 0 0 0 0 0 0 0 0 40 0 0 0 0 36 0 0 0 0 0 20 0 0 0 0 0 0 28 0 0 0 0 0 0 0 0 0 0 0 0 0 0 0 0 0 0 0 0 0 0 0 0 0 0 0 0 0 0 0 0 0 22 0 0 0 0 22 0 0 0 0 0 0 0 0 0 0 0 0 21 0 27 0 0 0 0 34 
		35 0 0 0 0 0 0 0 0 0 0 0 0 0 0 31 0 0 0 0 0 0 0 0 0 0 0 0 0 0 0 0 0 33 0 0 0 23 0 0 0 24 0 0 0 0 0 0 0 0 0 0 38 0 0 0 0 0 0 0 39 0 31 39 0 0 0 0 0 0 0 40 0 0 0 0 0 28 32 0 0 0 0 0 0 0 24 
		36 0 0 0 0 0 24 0 0 0 0 0 0 0 34 0 0 0 0 0 0 0 0 0 0 0 0 0 0 0 0 0 0 0 0 0 23 0 0 0 34 0 0 0 0 0 0 0 0 0 0 0 0 0 0 0 0 0 0 0 0 0 0 0 0 0 0 0 0 0 0 0 0 0 0 0 0 0 0 0 0 0 0 34 0 0 0 
		37 0 0 0 0 0 0 38 0 0 0 20 0 0 0 0 40 0 0 37 0 0 33 0 0 0 0 0 0 0 0 0 0 0 0 0 0 0 0 0 0 0 0 20 0 22 0 0 0 0 0 0 22 0 0 0 0 0 34 0 28 39 0 0 0 0 0 0 0 0 30 0 0 0 0 0 0 0 0 0 0 34 0 0 0 0 0 
		38 0 0 0 0 32 0 0 0 0 0 0 0 0 0 0 0 0 0 0 0 0 0 0 0 0 0 38 0 0 0 0 0 0 0 0 0 0 0 0 38 0 0 0 0 0 0 0 0 0 0 0 0 0 0 0 0 0 0 0 0 0 0 0 0 27 0 0 0 0 0 0 0 0 0 39 0 0 0 0 0 0 0 0 0 0 0 
		39 0 0 0 0 0 0 0 0 0 0 0 0 0 0 0 0 0 0 0 0 0 0 0 0 0 0 0 35 0 36 0 0 0 0 0 0 34 0 38 0 0 0 0 0 0 29 0 30 0 0 0 0 0 0 0 0 0 0 0 0 0 0 0 0 0 0 0 37 0 0 0 0 36 0 0 0 0 0 0 0 0 0 0 0 0 0 
		40 34 0 0 0 38 0 0 0 0 0 0 0 0 0 0 0 0 0 0 0 0 36 0 0 0 0 0 0 0 0 0 0 0 39 0 24 0 0 0 0 0 0 0 0 0 26 0 0 0 26 21 0 0 0 0 33 0 0 0 40 0 0 0 0 30 0 0 0 0 0 0 0 0 35 0 0 0 0 0 0 24 0 0 0 0 0 
		41 37 32 0 0 0 0 40 21 0 0 0 0 21 0 0 0 0 0 0 0 0 0 0 0 0 0 0 0 0 0 0 0 0 0 0 0 0 0 0 0 0 0 0 27 40 0 31 0 0 0 0 0 21 0 0 0 0 0 0 20 0 0 0 0 0 0 0 0 0 29 0 0 0 0 32 0 0 0 0 0 0 0 22 0 0 0 
		42 22 0 0 0 0 31 0 25 0 0 31 0 0 0 0 0 0 0 0 0 0 0 0 39 40 0 0 0 0 0 37 27 0 0 0 0 0 20 0 0 0 0 0 37 0 0 0 0 0 0 0 0 0 0 0 31 0 0 0 0 0 0 0 0 0 0 21 0 0 0 24 0 0 23 0 0 0 0 0 22 0 0 0 0 0 0 
		43 0 31 0 0 0 0 0 0 0 0 38 0 0 0 0 0 0 0 0 26 35 0 0 0 40 0 0 0 0 0 0 0 39 0 0 0 0 0 0 0 0 27 37 0 31 0 0 0 0 23 0 0 0 0 0 0 0 0 0 0 0 0 0 0 0 0 28 0 0 0 35 0 0 0 0 0 0 0 0 0 0 0 0 0 0 0 
		44 0 0 0 0 0 0 0 31 0 0 0 0 0 0 0 0 0 0 0 0 33 0 0 0 0 0 0 0 0 0 0 0 25 35 0 0 0 22 0 0 0 40 0 31 0 0 0 31 0 0 0 0 0 0 0 0 0 0 21 0 0 0 0 0 0 0 0 0 0 0 0 0 0 0 0 21 0 0 0 0 0 0 0 0 0 0 
		45 27 0 0 0 0 0 0 0 0 0 0 32 0 0 0 0 0 0 0 0 0 0 0 0 0 0 0 40 0 0 0 0 0 0 0 0 0 0 0 29 26 0 0 0 0 0 0 0 0 25 0 0 0 0 0 0 0 0 0 0 0 0 0 0 39 0 0 0 0 0 0 0 0 0 0 0 0 0 0 0 0 0 0 24 0 26 
		46 0 0 0 0 0 0 0 0 0 0 0 30 38 0 0 0 0 0 0 0 0 0 0 0 31 0 0 0 0 0 0 0 0 0 0 0 0 0 0 0 0 31 0 0 0 0 0 0 0 0 0 0 0 0 0 0 0 0 0 0 0 0 31 0 0 0 0 0 0 0 0 0 29 0 0 26 0 0 0 0 0 0 0 0 0 0 
		47 0 0 0 20 0 0 0 25 0 20 0 0 0 0 0 0 0 0 36 0 0 0 0 0 0 0 0 0 0 0 0 0 30 0 0 0 0 0 0 30 0 0 0 0 31 0 0 0 0 0 0 0 0 0 0 0 0 36 0 0 0 0 0 0 0 0 27 0 0 0 0 0 0 0 0 0 0 0 0 0 35 0 0 0 0 0 
		48 0 21 0 0 0 0 0 0 0 0 0 0 0 0 0 0 0 0 0 0 0 0 0 0 0 0 0 0 0 0 0 0 0 0 0 0 0 0 0 0 0 0 0 0 0 0 0 0 0 0 0 0 0 0 0 0 0 0 0 0 0 0 0 0 0 0 34 0 36 0 0 0 0 0 0 0 0 0 0 0 0 0 0 0 0 0 
		49 0 0 0 0 33 0 0 0 0 0 0 27 0 0 0 0 0 0 0 28 36 0 0 0 0 26 0 0 0 20 0 0 0 0 0 0 0 0 0 0 26 0 0 23 0 25 0 0 0 0 0 22 0 0 0 0 0 0 0 0 28 0 0 0 0 0 0 0 0 0 0 0 0 25 0 0 20 23 0 0 24 0 0 0 0 0 
		50 38 0 0 0 0 0 0 0 0 0 0 0 0 0 0 0 0 0 0 0 0 0 0 0 0 0 0 34 0 0 0 0 0 0 0 0 0 0 0 0 21 0 0 0 0 0 0 0 0 0 0 0 0 39 20 0 0 0 0 0 0 0 0 0 0 0 0 0 0 0 0 30 0 0 0 0 0 37 0 0 0 0 0 0 0 0 
		51 0 0 0 0 0 0 0 0 0 0 37 0 0 0 0 0 0 0 0 40 0 23 0 0 0 0 0 0 0 0 30 0 37 0 0 38 0 22 0 0 0 0 0 0 0 0 0 0 0 22 0 0 0 27 0 0 0 0 0 0 0 0 0 0 0 0 0 0 0 0 0 0 0 0 0 0 0 0 0 0 0 0 0 0 0 0 
		52 39 0 40 0 0 26 0 0 0 0 0 0 0 0 0 0 0 0 0 0 0 0 0 0 0 0 0 0 0 0 0 0 0 0 0 0 0 0 0 0 0 21 0 0 0 0 0 0 0 0 0 0 0 0 0 0 32 0 0 0 0 25 0 0 0 0 26 0 0 0 0 25 0 0 0 0 0 23 0 0 0 0 0 20 0 0 
		53 34 0 0 0 0 0 0 0 0 0 0 22 0 0 0 0 0 0 0 0 0 0 0 0 0 0 0 0 0 0 0 0 0 0 0 0 0 0 0 0 0 0 0 0 0 0 0 0 0 0 39 27 0 0 0 0 0 21 0 0 0 0 0 32 0 0 0 0 0 0 0 0 0 0 0 0 22 0 0 0 0 25 29 0 0 0 
		54 0 0 0 0 0 0 0 0 0 0 0 0 0 0 0 0 0 0 0 0 0 0 0 0 0 0 0 0 0 0 0 0 0 0 0 0 0 0 0 0 0 0 0 0 0 0 0 0 0 0 20 0 0 0 0 0 0 0 29 0 0 0 0 0 0 0 0 0 30 0 0 0 0 0 0 0 0 40 0 0 0 25 0 0 0 0 
		55 0 0 0 0 0 0 0 0 0 0 0 0 0 0 0 0 0 0 0 39 0 0 0 0 0 0 0 0 0 0 0 0 0 0 0 0 0 0 0 0 33 0 31 0 0 0 0 0 0 0 0 0 0 0 0 0 0 0 0 0 0 0 0 37 0 0 0 0 0 0 0 0 30 0 24 0 22 0 0 0 0 0 0 0 0 0 
		56 0 0 0 0 0 0 0 0 0 0 0 0 32 26 0 0 0 0 0 0 0 0 0 0 39 0 0 0 0 0 0 0 0 0 0 0 0 0 0 0 0 0 0 0 0 0 0 0 0 0 0 0 32 0 0 0 0 0 0 0 0 0 0 0 0 0 0 40 0 0 31 0 0 0 0 39 0 0 0 0 0 0 0 0 0 0 
		57 0 0 0 0 22 0 23 0 0 0 0 0 0 0 0 0 0 0 0 0 0 24 0 32 0 0 0 0 0 0 0 28 0 30 0 0 0 34 0 0 0 0 0 0 0 0 0 36 0 0 0 0 0 21 0 0 0 0 0 0 0 0 0 0 0 0 0 0 33 0 0 0 0 0 0 0 0 0 33 0 21 40 0 0 0 0 
		58 0 0 0 0 22 0 0 0 0 0 0 0 0 0 0 0 0 0 0 0 0 0 0 0 0 0 0 0 33 0 0 0 0 0 0 0 0 0 0 0 0 0 0 0 21 0 0 0 0 0 0 0 0 0 29 0 0 0 0 0 0 0 0 0 0 0 0 0 0 0 0 0 0 0 0 0 0 40 0 0 0 0 0 0 0 0 
		59 0 29 0 0 0 0 0 0 0 0 0 38 0 36 37 0 0 0 0 0 0 0 0 0 0 0 0 0 0 0 0 0 0 0 0 39 0 28 0 0 40 20 0 0 0 0 0 0 0 0 0 0 0 0 0 0 0 0 0 0 0 31 0 0 0 0 0 30 0 0 0 0 0 0 25 0 21 0 0 0 0 0 0 0 0 0 
		60 0 0 0 0 0 0 0 0 30 0 0 0 0 0 0 0 0 0 0 0 0 0 0 0 27 0 39 0 0 0 0 0 0 0 22 0 0 39 0 0 0 0 0 0 0 0 0 0 0 28 0 0 0 0 0 0 0 0 0 0 0 0 0 0 0 0 0 0 0 0 0 0 0 0 0 0 0 0 0 0 39 0 0 22 0 0 
		61 0 0 0 0 0 0 39 0 0 0 0 0 40 0 20 0 0 0 0 0 0 0 0 0 0 0 0 20 0 0 0 0 0 0 0 31 0 0 0 0 0 0 0 0 0 0 0 0 0 0 0 0 25 0 0 0 0 0 0 31 0 0 0 0 0 0 24 0 0 0 0 0 0 0 20 0 0 0 0 0 0 0 0 33 0 0 
		62 0 36 28 0 0 0 35 36 0 20 0 0 0 0 0 0 0 0 0 28 0 0 0 0 0 0 0 0 30 0 0 30 0 0 0 39 0 0 0 0 0 0 0 0 0 0 31 0 0 0 0 0 0 0 0 0 0 0 0 0 0 0 0 0 0 0 0 0 0 0 0 0 0 0 0 0 0 0 0 0 0 0 0 35 0 0 
		63 0 0 0 0 0 0 0 0 0 0 0 0 0 0 0 0 0 0 0 0 0 0 0 0 0 0 0 0 0 0 0 0 0 0 0 0 0 0 0 0 0 0 0 0 0 0 0 0 0 0 0 0 0 32 0 37 0 0 0 0 0 0 0 0 0 0 0 0 39 0 0 0 35 0 0 0 0 29 0 0 0 38 0 0 37 0 
		64 0 0 0 36 25 0 0 0 0 0 0 0 0 0 0 0 0 0 0 0 0 0 0 0 0 0 0 38 0 0 0 0 0 0 0 0 0 0 27 0 30 0 0 0 0 39 0 0 0 0 0 0 0 0 0 0 0 0 0 0 0 0 0 0 0 0 0 0 0 0 0 0 0 0 0 0 0 0 0 0 0 0 0 0 0 0 
		65 0 0 0 0 0 0 0 0 0 32 0 0 0 0 0 0 0 0 35 0 0 31 0 0 0 0 0 0 0 0 0 0 0 0 22 0 0 0 0 0 0 0 0 0 0 0 0 0 0 0 0 0 0 0 0 0 0 0 0 0 0 0 0 0 0 0 0 0 0 0 0 0 0 0 0 0 0 0 0 0 0 38 0 0 0 0 
		66 0 0 24 0 0 0 0 0 0 0 0 0 0 0 0 0 0 0 0 0 0 0 0 0 0 0 0 0 0 0 0 0 0 0 0 0 0 0 0 0 0 0 21 28 0 0 0 27 34 0 0 0 26 0 0 0 0 0 0 0 0 24 0 0 0 0 0 0 0 0 0 0 0 0 0 0 0 0 0 29 0 0 0 22 0 0 
		67 24 0 38 0 0 0 0 0 33 0 0 0 0 0 0 0 0 0 0 0 0 28 0 0 0 0 0 0 0 0 0 0 0 0 0 0 0 0 0 37 0 0 0 0 0 0 0 0 0 0 0 0 0 0 0 0 40 0 0 30 0 0 0 0 0 0 0 0 0 0 0 0 0 0 0 31 23 0 0 0 28 0 0 0 0 38 
		68 0 0 0 0 0 0 21 0 0 0 0 21 0 27 0 0 0 0 0 0 0 0 22 0 39 0 0 0 0 0 0 0 0 0 0 0 0 0 0 0 0 0 0 0 0 0 0 0 36 0 0 0 0 0 30 0 0 33 0 0 0 0 0 39 0 0 0 0 0 0 0 0 0 0 0 0 27 0 0 0 0 0 0 0 0 0 
		69 22 0 0 0 0 0 0 0 0 28 0 0 0 0 0 38 0 0 0 0 0 0 0 0 0 0 0 0 0 0 0 0 0 0 0 0 0 30 0 0 0 29 0 0 0 0 0 0 0 0 0 0 0 0 0 0 0 0 0 0 0 0 0 0 0 0 0 0 0 0 0 0 0 0 0 0 0 0 0 0 0 0 0 0 0 0 
		70 0 35 0 30 0 0 0 0 0 0 0 0 34 0 29 0 0 0 23 0 0 0 0 0 0 0 0 0 0 0 0 0 0 0 0 40 0 0 0 0 0 0 24 35 0 0 0 0 0 0 0 0 0 0 0 0 31 0 0 0 0 0 0 0 0 0 0 0 0 0 0 0 0 0 36 0 0 22 0 0 0 0 0 0 0 0 
		71 0 0 0 0 0 0 0 0 0 0 0 0 0 0 0 0 0 0 0 0 0 0 0 0 0 0 0 0 0 0 0 0 0 0 0 0 0 0 0 0 0 0 0 0 0 0 0 0 0 0 30 0 25 0 0 0 0 0 0 0 0 0 0 0 0 0 0 0 0 0 0 0 0 0 24 0 0 0 0 24 0 20 0 0 0 0 
		72 0 25 0 0 0 0 0 0 0 0 0 39 0 0 32 0 26 0 0 0 0 0 40 0 0 0 0 0 0 0 0 0 21 0 0 0 0 0 0 36 0 0 0 0 0 0 29 0 0 0 0 0 0 0 0 30 0 0 0 0 0 0 0 35 0 0 0 0 0 0 0 0 0 0 0 39 0 0 0 0 0 30 0 0 0 0 
		73 0 29 0 28 0 0 0 0 0 0 0 0 0 0 0 0 0 25 0 0 0 0 0 36 0 0 20 0 35 0 0 0 0 0 0 0 0 0 0 0 35 0 23 0 0 0 0 0 0 25 0 0 0 0 0 0 0 0 0 0 0 0 0 0 0 0 0 0 0 0 0 0 0 0 0 0 0 21 0 0 0 0 0 0 0 0 
		74 39 0 20 0 0 0 27 0 0 30 0 0 0 0 32 0 0 0 0 0 0 0 0 0 0 0 0 31 0 24 0 0 21 0 0 0 0 0 39 0 0 32 0 0 0 0 0 0 0 0 0 0 0 0 0 24 0 0 0 25 0 20 0 0 0 0 0 0 0 0 36 24 0 0 0 0 0 0 38 0 0 0 0 0 0 0 
		75 33 0 0 30 0 0 0 0 0 0 0 0 0 0 29 0 33 0 0 0 0 0 0 0 0 0 0 0 0 0 0 0 0 0 0 0 0 0 0 0 0 0 0 0 21 0 26 0 0 0 0 0 0 0 0 0 39 0 0 0 0 0 0 0 0 0 0 31 0 0 0 0 39 0 0 0 27 28 0 0 0 0 28 0 0 0 
		76 0 0 0 0 0 0 0 30 0 0 0 0 0 0 0 0 0 0 0 0 0 0 21 0 0 0 0 0 0 0 0 0 0 0 0 28 0 0 0 0 0 0 0 0 0 0 0 0 0 20 0 0 0 22 0 22 0 0 0 21 0 0 0 0 0 0 0 23 27 0 0 0 0 0 0 27 0 0 0 0 0 0 0 0 0 0 
		77 27 0 0 0 0 0 0 0 0 0 0 0 0 0 0 0 22 0 0 0 0 0 0 0 0 0 0 0 0 0 0 0 0 40 0 32 0 0 0 0 0 0 0 0 0 0 0 0 0 23 37 0 23 0 40 0 0 0 40 0 0 0 0 29 0 0 0 0 0 0 22 0 0 21 0 28 0 0 0 34 0 0 0 0 0 0 
		78 0 0 0 0 0 0 0 0 30 0 0 0 0 0 0 32 0 0 0 0 0 0 0 0 0 0 0 0 0 0 0 0 0 0 21 0 0 0 0 0 0 0 0 0 0 0 0 0 0 0 0 0 0 0 0 0 0 33 0 0 0 0 0 0 0 0 0 0 0 0 0 0 0 0 38 0 0 0 0 35 0 0 0 0 0 0 
		79 34 0 0 0 24 0 0 0 0 0 0 0 22 0 0 0 0 0 0 0 0 0 0 0 0 0 0 0 0 0 0 0 0 31 0 0 0 0 0 0 0 0 22 0 0 0 0 0 0 0 0 0 0 0 0 0 0 0 0 0 0 0 0 0 0 0 29 0 0 0 0 24 0 0 0 0 0 34 35 0 23 0 0 0 0 38 
		80 0 0 0 0 0 0 0 0 0 0 0 35 0 0 0 0 0 0 0 30 0 23 0 0 0 0 28 0 0 0 0 0 35 0 27 0 0 34 0 0 24 0 0 0 0 0 0 35 0 24 0 0 0 0 0 0 0 21 0 0 39 0 0 0 0 0 0 28 0 0 0 0 0 0 0 0 0 0 0 23 0 29 0 0 0 0 
		81 0 0 0 0 0 0 0 0 0 0 27 0 0 0 0 0 0 0 0 0 0 0 0 0 0 0 0 0 0 28 0 0 0 27 0 0 0 0 0 0 0 0 0 0 0 0 0 0 0 0 0 0 0 25 25 0 0 40 0 0 0 0 0 38 0 38 0 0 0 0 0 20 30 0 0 0 0 0 0 0 29 0 0 0 34 0 
		82 0 0 0 0 0 24 31 0 0 0 0 0 0 0 0 21 0 0 0 0 0 0 0 0 28 0 0 0 0 0 0 0 0 0 0 0 34 0 0 0 0 22 0 0 0 0 0 0 0 0 0 0 0 29 0 0 0 0 0 0 0 0 0 0 0 0 0 0 0 0 0 0 0 0 0 28 0 0 0 0 0 0 0 0 0 0 
		83 0 0 30 0 0 0 0 0 0 0 0 34 0 0 0 0 0 0 0 34 0 0 0 28 0 29 0 0 0 0 0 0 0 0 0 0 0 0 0 0 0 0 0 0 0 24 0 0 0 0 0 0 20 0 0 0 0 0 0 0 22 33 35 0 0 0 22 0 0 0 0 0 0 0 0 0 0 0 0 0 0 0 0 0 0 0 
		84 0 0 0 0 0 0 0 0 0 0 0 0 0 0 0 0 0 0 0 0 0 32 0 0 33 0 0 0 0 0 0 0 0 0 0 0 0 0 0 0 0 0 0 0 0 0 0 0 0 0 0 0 0 0 0 0 0 0 0 0 0 0 0 37 0 0 0 0 0 0 0 0 0 0 0 0 0 0 0 0 0 34 0 0 0 26 
		85 0 25 0 0 0 0 28 0 0 0 0 0 0 0 0 0 27 0 0 0 0 0 0 0 0 0 0 0 0 0 0 0 0 36 34 24 0 0 0 0 0 0 0 0 0 26 0 0 0 0 0 0 0 0 0 0 0 0 0 0 0 0 0 0 0 0 0 38 0 0 0 0 0 0 0 0 0 0 0 38 0 0 0 0 26 0 
;
